276
Lattice="16.991 0.0 0.0 0.0 16.991 0.0 0.0 0.0 16.991" Properties=species:S:1:pos:R:3:forces:R:3 energy=-0.35532993000015267 pbc="T T T"
C        6.40645655       0.13422890      10.58454345       0.00000000       0.00000000       0.00000000
C        6.26135341      15.27728774      11.68131250       0.00000000       0.00000000       0.00000000
H        6.41750070      14.59356990      12.29128940       0.00000000       0.00000000       0.00000000
C        6.90004510       1.45273050      10.09095490       0.00000000       0.00000000       0.00000000
N        6.96172243      16.45272512      11.60111498       0.00000000       0.00000000       0.00000000
Zn       8.49550000       0.00000000      12.74325000       0.00000000       0.00000000       0.00000000
C        0.13422890      10.58454345       6.40645655       0.00000000       0.00000000       0.00000000
C       15.27728774      10.72964659       5.30968750       0.00000000       0.00000000       0.00000000
H       14.59356990      10.57349930       4.69971060       0.00000000       0.00000000       0.00000000
C        1.45273050      10.09095490       6.90004510       0.00000000       0.00000000       0.00000000
N       16.45272512      10.02927757       5.38988502       0.00000000       0.00000000       0.00000000
Zn       0.00000000       8.49550000       4.24775000       0.00000000       0.00000000       0.00000000
C       10.58454345      16.85677110      10.58454345       0.00000000       0.00000000       0.00000000
C       10.72964659       1.71371226      11.68131250       0.00000000       0.00000000       0.00000000
H       10.57349930       2.39743010      12.29128940       0.00000000       0.00000000       0.00000000
C       10.09095490      15.53826950      10.09095490       0.00000000       0.00000000       0.00000000
H        9.19722830      15.63511820       9.75793130       0.00000000       0.00000000       0.00000000
H       10.09605220      14.90450520      10.81307240       0.00000000       0.00000000       0.00000000
H       10.66355160      15.22563510       9.38752750       0.00000000       0.00000000       0.00000000
N       10.02927757       0.53827488      11.60111498       0.00000000       0.00000000       0.00000000
C       16.85677110       6.40645655       6.40645655       0.00000000       0.00000000       0.00000000
C        1.71371226       6.26135341       5.30968750       0.00000000       0.00000000       0.00000000
H        2.39743010       6.41750070       4.69971060       0.00000000       0.00000000       0.00000000
C       15.53826950       6.90004510       6.90004510       0.00000000       0.00000000       0.00000000
H       15.63511820       7.79377170       7.23306870       0.00000000       0.00000000       0.00000000
H       14.90450520       6.89494780       6.17792760       0.00000000       0.00000000       0.00000000
H       15.22563510       6.32744840       7.60347250       0.00000000       0.00000000       0.00000000
N        0.53827488       6.96172243       5.38988502       0.00000000       0.00000000       0.00000000
C        6.40645655      16.85677110       6.40645655       0.00000000       0.00000000       0.00000000
C        6.26135341       1.71371226       5.30968750       0.00000000       0.00000000       0.00000000
H        6.41750070       2.39743010       4.69971060       0.00000000       0.00000000       0.00000000
C        6.90004510      15.53826950       6.90004510       0.00000000       0.00000000       0.00000000
N        6.96172243       0.53827488       5.38988502       0.00000000       0.00000000       0.00000000
Zn       8.49550000       0.00000000       4.24775000       0.00000000       0.00000000       0.00000000
C       16.85677110      10.58454345      10.58454345       0.00000000       0.00000000       0.00000000
C        1.71371226      10.72964659      11.68131250       0.00000000       0.00000000       0.00000000
H        2.39743010      10.57349930      12.29128940       0.00000000       0.00000000       0.00000000
C       15.53826950      10.09095490      10.09095490       0.00000000       0.00000000       0.00000000
N        0.53827488      10.02927757      11.60111498       0.00000000       0.00000000       0.00000000
Zn       0.00000000       8.49550000      12.74325000       0.00000000       0.00000000       0.00000000
C       10.58454345       0.13422890       6.40645655       0.00000000       0.00000000       0.00000000
C       10.72964659      15.27728774       5.30968750       0.00000000       0.00000000       0.00000000
H       10.57349930      14.59356990       4.69971060       0.00000000       0.00000000       0.00000000
C       10.09095490       1.45273050       6.90004510       0.00000000       0.00000000       0.00000000
H        9.19722830       1.35588180       7.23306870       0.00000000       0.00000000       0.00000000
H       10.09605220       2.08649480       6.17792760       0.00000000       0.00000000       0.00000000
H       10.66355160       1.76536490       7.60347250       0.00000000       0.00000000       0.00000000
N       10.02927757      16.45272512       5.38988502       0.00000000       0.00000000       0.00000000
C        0.13422890       6.40645655      10.58454345       0.00000000       0.00000000       0.00000000
C       15.27728774       6.26135341      11.68131250       0.00000000       0.00000000       0.00000000
H       14.59356990       6.41750070      12.29128940       0.00000000       0.00000000       0.00000000
C        1.45273050       6.90004510      10.09095490       0.00000000       0.00000000       0.00000000
H        1.35588180       7.79377170       9.75793130       0.00000000       0.00000000       0.00000000
H        2.08649480       6.89494780      10.81307240       0.00000000       0.00000000       0.00000000
H        1.76536490       6.32744840       9.38752750       0.00000000       0.00000000       0.00000000
N       16.45272512       6.96172243      11.60111498       0.00000000       0.00000000       0.00000000
C       10.58454345       6.40645655       0.13422890       0.00000000       0.00000000       0.00000000
C       11.68131250       6.26135341      15.27728774       0.00000000       0.00000000       0.00000000
H       12.29128940       6.41750070      14.59356990       0.00000000       0.00000000       0.00000000
C       10.09095490       6.90004510       1.45273050       0.00000000       0.00000000       0.00000000
N       11.60111498       6.96172243      16.45272512       0.00000000       0.00000000       0.00000000
Zn      12.74325000       8.49550000       0.00000000       0.00000000       0.00000000       0.00000000
C        6.40645655       6.40645655      16.85677110       0.00000000       0.00000000       0.00000000
C        6.26135341       5.30968750       1.71371226       0.00000000       0.00000000       0.00000000
H        6.41750070       4.69971060       2.39743010       0.00000000       0.00000000       0.00000000
C        6.90004510       6.90004510      15.53826950       0.00000000       0.00000000       0.00000000
H        7.79377170       7.23306870      15.63511820       0.00000000       0.00000000       0.00000000
H        6.89494780       6.17792760      14.90450520       0.00000000       0.00000000       0.00000000
H        6.32744840       7.60347250      15.22563510       0.00000000       0.00000000       0.00000000
N        6.96172243       5.38988502       0.53827488       0.00000000       0.00000000       0.00000000
Zn       8.49550000       4.24775000       0.00000000       0.00000000       0.00000000       0.00000000
C        6.40645655      10.58454345       0.13422890       0.00000000       0.00000000       0.00000000
C        5.30968750      10.72964659      15.27728774       0.00000000       0.00000000       0.00000000
H        4.69971060      10.57349930      14.59356990       0.00000000       0.00000000       0.00000000
C        6.90004510      10.09095490       1.45273050       0.00000000       0.00000000       0.00000000
N        5.38988502      10.02927757      16.45272512       0.00000000       0.00000000       0.00000000
Zn       4.24775000       8.49550000       0.00000000       0.00000000       0.00000000       0.00000000
C       10.58454345      10.58454345      16.85677110       0.00000000       0.00000000       0.00000000
C       10.72964659      11.68131250       1.71371226       0.00000000       0.00000000       0.00000000
H       10.57349930      12.29128940       2.39743010       0.00000000       0.00000000       0.00000000
C       10.09095490      10.09095490      15.53826950       0.00000000       0.00000000       0.00000000
H        9.19722830       9.75793130      15.63511820       0.00000000       0.00000000       0.00000000
H       10.09605220      10.81307240      14.90450520       0.00000000       0.00000000       0.00000000
H       10.66355160       9.38752750      15.22563510       0.00000000       0.00000000       0.00000000
N       10.02927757      11.60111498       0.53827488       0.00000000       0.00000000       0.00000000
Zn       8.49550000      12.74325000       0.00000000       0.00000000       0.00000000       0.00000000
C       11.68131250      10.72964659       1.71371226       0.00000000       0.00000000       0.00000000
H       12.29128940      10.57349930       2.39743010       0.00000000       0.00000000       0.00000000
N       11.60111498      10.02927757       0.53827488       0.00000000       0.00000000       0.00000000
C       10.72964659       5.30968750      15.27728774       0.00000000       0.00000000       0.00000000
H       10.57349930       4.69971060      14.59356990       0.00000000       0.00000000       0.00000000
H        9.19722830       7.23306870       1.35588180       0.00000000       0.00000000       0.00000000
H       10.09605220       6.17792760       2.08649480       0.00000000       0.00000000       0.00000000
H       10.66355160       7.60347250       1.76536490       0.00000000       0.00000000       0.00000000
N       10.02927757       5.38988502      16.45272512       0.00000000       0.00000000       0.00000000
C        5.30968750       6.26135341       1.71371226       0.00000000       0.00000000       0.00000000
H        4.69971060       6.41750070       2.39743010       0.00000000       0.00000000       0.00000000
N        5.38988502       6.96172243       0.53827488       0.00000000       0.00000000       0.00000000
C        6.26135341      11.68131250      15.27728774       0.00000000       0.00000000       0.00000000
H        6.41750070      12.29128940      14.59356990       0.00000000       0.00000000       0.00000000
H        7.79377170       9.75793130       1.35588180       0.00000000       0.00000000       0.00000000
H        6.89494780      10.81307240       2.08649480       0.00000000       0.00000000       0.00000000
H        6.32744840       9.38752750       1.76536490       0.00000000       0.00000000       0.00000000
N        6.96172243      11.60111498      16.45272512       0.00000000       0.00000000       0.00000000
C       15.27728774      11.68131250       6.26135341       0.00000000       0.00000000       0.00000000
H       14.59356990      12.29128940       6.41750070       0.00000000       0.00000000       0.00000000
H        1.35588180       9.75793130       7.79377170       0.00000000       0.00000000       0.00000000
H        2.08649480      10.81307240       6.89494780       0.00000000       0.00000000       0.00000000
H        1.76536490       9.38752750       6.32744840       0.00000000       0.00000000       0.00000000
N       16.45272512      11.60111498       6.96172243       0.00000000       0.00000000       0.00000000
Zn       0.00000000      12.74325000       8.49550000       0.00000000       0.00000000       0.00000000
C       15.27728774       5.30968750      10.72964659       0.00000000       0.00000000       0.00000000
H       14.59356990       4.69971060      10.57349930       0.00000000       0.00000000       0.00000000
N       16.45272512       5.38988502      10.02927757       0.00000000       0.00000000       0.00000000
Zn       0.00000000       4.24775000       8.49550000       0.00000000       0.00000000       0.00000000
C        5.30968750       1.71371226       6.26135341       0.00000000       0.00000000       0.00000000
H        4.69971060       2.39743010       6.41750070       0.00000000       0.00000000       0.00000000
H        7.23306870      15.63511820       7.79377170       0.00000000       0.00000000       0.00000000
H        6.17792760      14.90450520       6.89494780       0.00000000       0.00000000       0.00000000
H        7.60347250      15.22563510       6.32744840       0.00000000       0.00000000       0.00000000
N        5.38988502       0.53827488       6.96172243       0.00000000       0.00000000       0.00000000
Zn       4.24775000       0.00000000       8.49550000       0.00000000       0.00000000       0.00000000
C        1.71371226      11.68131250      10.72964659       0.00000000       0.00000000       0.00000000
H        2.39743010      12.29128940      10.57349930       0.00000000       0.00000000       0.00000000
H       15.63511820       9.75793130       9.19722830       0.00000000       0.00000000       0.00000000
H       14.90450520      10.81307240      10.09605220       0.00000000       0.00000000       0.00000000
H       15.22563510       9.38752750      10.66355160       0.00000000       0.00000000       0.00000000
N        0.53827488      11.60111498      10.02927757       0.00000000       0.00000000       0.00000000
C       11.68131250      15.27728774       6.26135341       0.00000000       0.00000000       0.00000000
H       12.29128940      14.59356990       6.41750070       0.00000000       0.00000000       0.00000000
N       11.60111498      16.45272512       6.96172243       0.00000000       0.00000000       0.00000000
Zn      12.74325000       0.00000000       8.49550000       0.00000000       0.00000000       0.00000000
C        1.71371226       5.30968750       6.26135341       0.00000000       0.00000000       0.00000000
H        2.39743010       4.69971060       6.41750070       0.00000000       0.00000000       0.00000000
N        0.53827488       5.38988502       6.96172243       0.00000000       0.00000000       0.00000000
C        5.30968750      15.27728774      10.72964659       0.00000000       0.00000000       0.00000000
H        4.69971060      14.59356990      10.57349930       0.00000000       0.00000000       0.00000000
H        7.23306870       1.35588180       9.19722830       0.00000000       0.00000000       0.00000000
H        6.17792760       2.08649480      10.09605220       0.00000000       0.00000000       0.00000000
H        7.60347250       1.76536490      10.66355160       0.00000000       0.00000000       0.00000000
N        5.38988502      16.45272512      10.02927757       0.00000000       0.00000000       0.00000000
C       11.68131250       1.71371226      10.72964659       0.00000000       0.00000000       0.00000000
H       12.29128940       2.39743010      10.57349930       0.00000000       0.00000000       0.00000000
N       11.60111498       0.53827488      10.02927757       0.00000000       0.00000000       0.00000000
C       14.90195655       8.62972890       2.08904345       0.00000000       0.00000000       0.00000000
C       14.75685341       6.78178774       3.18581250       0.00000000       0.00000000       0.00000000
H       14.91300070       6.09806990       3.79578940       0.00000000       0.00000000       0.00000000
C       15.39554510       9.94823050       1.59545490       0.00000000       0.00000000       0.00000000
H       16.28927170       9.85138180       1.26243130       0.00000000       0.00000000       0.00000000
H       15.39044780      10.58199480       2.31757240       0.00000000       0.00000000       0.00000000
H       14.82294840      10.26086490       0.89202750       0.00000000       0.00000000       0.00000000
N       15.45722243       7.95722512       3.10561498       0.00000000       0.00000000       0.00000000
C        8.62972890       2.08904345      14.90195655       0.00000000       0.00000000       0.00000000
C        6.78178774       2.23414659      13.80518750       0.00000000       0.00000000       0.00000000
H        6.09806990       2.07799930      13.19521060       0.00000000       0.00000000       0.00000000
C        9.94823050       1.59545490      15.39554510       0.00000000       0.00000000       0.00000000
N        7.95722512       1.53377757      13.88538502       0.00000000       0.00000000       0.00000000
C        2.08904345       8.36127110       2.08904345       0.00000000       0.00000000       0.00000000
C        2.23414659      10.20921226       3.18581250       0.00000000       0.00000000       0.00000000
H        2.07799930      10.89293010       3.79578940       0.00000000       0.00000000       0.00000000
C        1.59545490       7.04276950       1.59545490       0.00000000       0.00000000       0.00000000
H        0.70172830       7.13961820       1.26243130       0.00000000       0.00000000       0.00000000
H        1.60055220       6.40900520       2.31757240       0.00000000       0.00000000       0.00000000
H        2.16805160       6.73013510       0.89202750       0.00000000       0.00000000       0.00000000
N        1.53377757       9.03377488       3.10561498       0.00000000       0.00000000       0.00000000
C        8.36127110      14.90195655      14.90195655       0.00000000       0.00000000       0.00000000
C       10.20921226      14.75685341      13.80518750       0.00000000       0.00000000       0.00000000
H       10.89293010      14.91300070      13.19521060       0.00000000       0.00000000       0.00000000
C        7.04276950      15.39554510      15.39554510       0.00000000       0.00000000       0.00000000
H        7.13961820      16.28927170      15.72856870       0.00000000       0.00000000       0.00000000
H        6.40900520      15.39044780      14.67342760       0.00000000       0.00000000       0.00000000
H        6.73013510      14.82294840      16.09897250       0.00000000       0.00000000       0.00000000
N        9.03377488      15.45722243      13.88538502       0.00000000       0.00000000       0.00000000
C       14.90195655       8.36127110      14.90195655       0.00000000       0.00000000       0.00000000
C       14.75685341      10.20921226      13.80518750       0.00000000       0.00000000       0.00000000
H       14.91300070      10.89293010      13.19521060       0.00000000       0.00000000       0.00000000
C       15.39554510       7.04276950      15.39554510       0.00000000       0.00000000       0.00000000
H       16.28927170       7.13961820      15.72856870       0.00000000       0.00000000       0.00000000
H       15.39044780       6.40900520      14.67342760       0.00000000       0.00000000       0.00000000
H       14.82294840       6.73013510      16.09897250       0.00000000       0.00000000       0.00000000
N       15.45722243       9.03377488      13.88538502       0.00000000       0.00000000       0.00000000
C        8.36127110       2.08904345       2.08904345       0.00000000       0.00000000       0.00000000
C       10.20921226       2.23414659       3.18581250       0.00000000       0.00000000       0.00000000
H       10.89293010       2.07799930       3.79578940       0.00000000       0.00000000       0.00000000
C        7.04276950       1.59545490       1.59545490       0.00000000       0.00000000       0.00000000
N        9.03377488       1.53377757       3.10561498       0.00000000       0.00000000       0.00000000
C        2.08904345       8.62972890      14.90195655       0.00000000       0.00000000       0.00000000
C        2.23414659       6.78178774      13.80518750       0.00000000       0.00000000       0.00000000
H        2.07799930       6.09806990      13.19521060       0.00000000       0.00000000       0.00000000
C        1.59545490       9.94823050      15.39554510       0.00000000       0.00000000       0.00000000
N        1.53377757       7.95722512      13.88538502       0.00000000       0.00000000       0.00000000
C        8.62972890      14.90195655       2.08904345       0.00000000       0.00000000       0.00000000
C        6.78178774      14.75685341       3.18581250       0.00000000       0.00000000       0.00000000
H        6.09806990      14.91300070       3.79578940       0.00000000       0.00000000       0.00000000
C        9.94823050      15.39554510       1.59545490       0.00000000       0.00000000       0.00000000
N        7.95722512      15.45722243       3.10561498       0.00000000       0.00000000       0.00000000
C        2.08904345      14.90195655       8.62972890       0.00000000       0.00000000       0.00000000
C        3.18581250      14.75685341       6.78178774       0.00000000       0.00000000       0.00000000
H        3.79578940      14.91300070       6.09806990       0.00000000       0.00000000       0.00000000
C        1.59545490      15.39554510       9.94823050       0.00000000       0.00000000       0.00000000
N        3.10561498      15.45722243       7.95722512       0.00000000       0.00000000       0.00000000
C       14.90195655      14.90195655       8.36127110       0.00000000       0.00000000       0.00000000
C       14.75685341      13.80518750      10.20921226       0.00000000       0.00000000       0.00000000
H       14.91300070      13.19521060      10.89293010       0.00000000       0.00000000       0.00000000
C       15.39554510      15.39554510       7.04276950       0.00000000       0.00000000       0.00000000
H       16.28927170      15.72856870       7.13961820       0.00000000       0.00000000       0.00000000
H       15.39044780      14.67342760       6.40900520       0.00000000       0.00000000       0.00000000
H       14.82294840      16.09897250       6.73013510       0.00000000       0.00000000       0.00000000
N       15.45722243      13.88538502       9.03377488       0.00000000       0.00000000       0.00000000
C       14.90195655       2.08904345       8.62972890       0.00000000       0.00000000       0.00000000
C       13.80518750       2.23414659       6.78178774       0.00000000       0.00000000       0.00000000
H       13.19521060       2.07799930       6.09806990       0.00000000       0.00000000       0.00000000
C       15.39554510       1.59545490       9.94823050       0.00000000       0.00000000       0.00000000
N       13.88538502       1.53377757       7.95722512       0.00000000       0.00000000       0.00000000
C        2.08904345       2.08904345       8.36127110       0.00000000       0.00000000       0.00000000
C        2.23414659       3.18581250      10.20921226       0.00000000       0.00000000       0.00000000
H        2.07799930       3.79578940      10.89293010       0.00000000       0.00000000       0.00000000
C        1.59545490       1.59545490       7.04276950       0.00000000       0.00000000       0.00000000
H        0.70172830       1.26243130       7.13961820       0.00000000       0.00000000       0.00000000
H        1.60055220       2.31757240       6.40900520       0.00000000       0.00000000       0.00000000
H        2.16805160       0.89202750       6.73013510       0.00000000       0.00000000       0.00000000
N        1.53377757       3.10561498       9.03377488       0.00000000       0.00000000       0.00000000
C        3.18581250       2.23414659      10.20921226       0.00000000       0.00000000       0.00000000
H        3.79578940       2.07799930      10.89293010       0.00000000       0.00000000       0.00000000
N        3.10561498       1.53377757       9.03377488       0.00000000       0.00000000       0.00000000
C        2.23414659      13.80518750       6.78178774       0.00000000       0.00000000       0.00000000
H        2.07799930      13.19521060       6.09806990       0.00000000       0.00000000       0.00000000
H        0.70172830      15.72856870       9.85138180       0.00000000       0.00000000       0.00000000
H        1.60055220      14.67342760      10.58199480       0.00000000       0.00000000       0.00000000
H        2.16805160      16.09897250      10.26086490       0.00000000       0.00000000       0.00000000
N        1.53377757      13.88538502       7.95722512       0.00000000       0.00000000       0.00000000
C       13.80518750      14.75685341      10.20921226       0.00000000       0.00000000       0.00000000
H       13.19521060      14.91300070      10.89293010       0.00000000       0.00000000       0.00000000
N       13.88538502      15.45722243       9.03377488       0.00000000       0.00000000       0.00000000
C       14.75685341       3.18581250       6.78178774       0.00000000       0.00000000       0.00000000
H       14.91300070       3.79578940       6.09806990       0.00000000       0.00000000       0.00000000
H       16.28927170       1.26243130       9.85138180       0.00000000       0.00000000       0.00000000
H       15.39044780       2.31757240      10.58199480       0.00000000       0.00000000       0.00000000
H       14.82294840       0.89202750      10.26086490       0.00000000       0.00000000       0.00000000
N       15.45722243       3.10561498       7.95722512       0.00000000       0.00000000       0.00000000
C        6.78178774       3.18581250      14.75685341       0.00000000       0.00000000       0.00000000
H        6.09806990       3.79578940      14.91300070       0.00000000       0.00000000       0.00000000
H        9.85138180       1.26243130      16.28927170       0.00000000       0.00000000       0.00000000
H       10.58199480       2.31757240      15.39044780       0.00000000       0.00000000       0.00000000
H       10.26086490       0.89202750      14.82294840       0.00000000       0.00000000       0.00000000
N        7.95722512       3.10561498      15.45722243       0.00000000       0.00000000       0.00000000
C        6.78178774      13.80518750       2.23414659       0.00000000       0.00000000       0.00000000
H        6.09806990      13.19521060       2.07799930       0.00000000       0.00000000       0.00000000
H        9.85138180      15.72856870       0.70172830       0.00000000       0.00000000       0.00000000
H       10.58199480      14.67342760       1.60055220       0.00000000       0.00000000       0.00000000
H       10.26086490      16.09897250       2.16805160       0.00000000       0.00000000       0.00000000
N        7.95722512      13.88538502       1.53377757       0.00000000       0.00000000       0.00000000
C       13.80518750      10.20921226      14.75685341       0.00000000       0.00000000       0.00000000
H       13.19521060      10.89293010      14.91300070       0.00000000       0.00000000       0.00000000
N       13.88538502       9.03377488      15.45722243       0.00000000       0.00000000       0.00000000
C       10.20921226       3.18581250       2.23414659       0.00000000       0.00000000       0.00000000
H       10.89293010       3.79578940       2.07799930       0.00000000       0.00000000       0.00000000
H        7.13961820       1.26243130       0.70172830       0.00000000       0.00000000       0.00000000
H        6.40900520       2.31757240       1.60055220       0.00000000       0.00000000       0.00000000
H        6.73013510       0.89202750       2.16805160       0.00000000       0.00000000       0.00000000
N        9.03377488       3.10561498       1.53377757       0.00000000       0.00000000       0.00000000
C        3.18581250       6.78178774      14.75685341       0.00000000       0.00000000       0.00000000
H        3.79578940       6.09806990      14.91300070       0.00000000       0.00000000       0.00000000
H        1.26243130       9.85138180      16.28927170       0.00000000       0.00000000       0.00000000
H        2.31757240      10.58199480      15.39044780       0.00000000       0.00000000       0.00000000
H        0.89202750      10.26086490      14.82294840       0.00000000       0.00000000       0.00000000
N        3.10561498       7.95722512      15.45722243       0.00000000       0.00000000       0.00000000
C       10.20921226      13.80518750      14.75685341       0.00000000       0.00000000       0.00000000
H       10.89293010      13.19521060      14.91300070       0.00000000       0.00000000       0.00000000
N        9.03377488      13.88538502      15.45722243       0.00000000       0.00000000       0.00000000
C       13.80518750       6.78178774       2.23414659       0.00000000       0.00000000       0.00000000
H       13.19521060       6.09806990       2.07799930       0.00000000       0.00000000       0.00000000
N       13.88538502       7.95722512       1.53377757       0.00000000       0.00000000       0.00000000
C        3.18581250      10.20921226       2.23414659       0.00000000       0.00000000       0.00000000
H        3.79578940      10.89293010       2.07799930       0.00000000       0.00000000       0.00000000
N        3.10561498       9.03377488       1.53377757       0.00000000       0.00000000       0.00000000
